GLPSOL--GLPK LP/MIP Solver 5.0
Parameter(s) specified in the command line:
 --lp ../modeles/2_149.lp --log 2_149.log
Reading problem data from '../modeles/2_149.lp'...
307 rows, 600 columns, 2096 non-zeros
298 integer variables, all of which are binary
915 lines were read
GLPK Integer Optimizer 5.0
307 rows, 600 columns, 2096 non-zeros
298 integer variables, all of which are binary
Preprocessing...
292 constraint coefficient(s) were reduced
307 rows, 598 columns, 2094 non-zeros
298 integer variables, all of which are binary
Scaling...
 A: min|aij| =  1.802e-04  max|aij| =  4.000e+00  ratio =  2.220e+04
GM: min|aij| =  8.192e-02  max|aij| =  1.221e+01  ratio =  1.490e+02
EQ: min|aij| =  6.711e-03  max|aij| =  1.000e+00  ratio =  1.490e+02
2N: min|aij| =  3.906e-03  max|aij| =  1.741e+00  ratio =  4.456e+02
Constructing initial basis...
Size of triangular part is 307
Solving LP relaxation...
GLPK Simplex Optimizer 5.0
307 rows, 598 columns, 2094 non-zeros
      0: obj =   4.000000000e+00 inf =   1.070e+02 (5)
     25: obj =   4.998423423e-01 inf =   0.000e+00 (0)
*    84: obj =  -1.414074600e+00 inf =   1.668e-16 (0)
OPTIMAL LP SOLUTION FOUND
Integer optimization begins...
Long-step dual simplex will be used
+    84: mip =     not found yet >=              -inf        (1; 0)
+    90: >>>>>  -1.414074600e+00 >=  -1.414074600e+00 < 0.1% (5; 1)
+    90: mip =  -1.414074600e+00 >=     tree is empty   0.0% (0; 11)
INTEGER OPTIMAL SOLUTION FOUND
Time used:   0.0 secs
Memory used: 0.9 Mb (946638 bytes)
